solution status: optimal solution found
objective value:                     231589.215002948
d11(0,0)                                            1 	(obj:0)
d11(1,1)                                            1 	(obj:0)
d11(1,2)                                            1 	(obj:0)
d11(2,3)                                            1 	(obj:0)
d11(2,5)                                            1 	(obj:0)
d11(2,6)                                            1 	(obj:0)
d11(4,15)                                           1 	(obj:0)
d11(4,17)                                           1 	(obj:0)
d11(4,19)                                           1 	(obj:0)
d11(4,20)                                           1 	(obj:0)
d11(4,21)                                           1 	(obj:0)
d11(4,23)                                           1 	(obj:0)
d11(4,25)                                           1 	(obj:0)
d11(4,27)                                           1 	(obj:0)
d11(4,28)                                           1 	(obj:0)
d11(4,29)                                           1 	(obj:0)
d11(5,31)                                           1 	(obj:0)
d11(5,33)                                           1 	(obj:0)
d11(5,35)                                           1 	(obj:0)
d11(5,37)                                           1 	(obj:0)
d11(5,39)                                           1 	(obj:0)
d11(5,41)                                           1 	(obj:0)
d11(5,43)                                           1 	(obj:0)
d11(5,45)                           0.999999999999985 	(obj:0)
d11(5,49)                                           1 	(obj:0)
d11(5,51)                                           1 	(obj:0)
d11(5,53)                           0.999999999999985 	(obj:0)
d11(5,55)                                           1 	(obj:0)
d11(5,57)                                           1 	(obj:0)
d11(5,59)                                           1 	(obj:0)
d11(6,63)                                           1 	(obj:0)
d11(6,65)                                           1 	(obj:0)
d11(6,67)                                           1 	(obj:0)
d11(6,69)                                           1 	(obj:0)
d11(6,71)                                           1 	(obj:0)
d11(6,73)                                           1 	(obj:0)
d11(6,75)                                           1 	(obj:0)
d11(6,77)                                           1 	(obj:0)
d11(6,79)                                           1 	(obj:0)
d11(6,81)                                           1 	(obj:0)
d11(6,83)                                           1 	(obj:0)
d11(6,85)                                           1 	(obj:0)
d11(6,87)                                           1 	(obj:0)
d11(6,89)                                           1 	(obj:0)
d11(6,91)                                           1 	(obj:0)
d11(6,93)                                           1 	(obj:0)
d11(6,95)                                           1 	(obj:0)
d11(6,97)                                           1 	(obj:0)
d11(6,99)                                           1 	(obj:0)
d11(6,101)                                          1 	(obj:0)
d11(6,103)                                          1 	(obj:0)
d11(6,105)                                          1 	(obj:0)
d11(6,107)                                          1 	(obj:0)
d11(6,109)                                          1 	(obj:0)
d11(6,111)                                          1 	(obj:0)
d11(6,113)                                          1 	(obj:0)
d11(6,115)                                          1 	(obj:0)
d11(6,117)                                          1 	(obj:0)
d11(6,119)                                          1 	(obj:0)
d11(6,121)                                          1 	(obj:0)
d11(6,123)                                          1 	(obj:0)
d11(6,125)                                          1 	(obj:0)
d12(3,8)                                            1 	(obj:0)
d12(3,10)                                           1 	(obj:0)
d12(3,12)                                           1 	(obj:0)
d12(3,14)                                           1 	(obj:0)
d12(5,32)                                           1 	(obj:0)
d12(5,34)                                           1 	(obj:0)
d12(5,36)                                           1 	(obj:0)
d12(5,38)                                           1 	(obj:0)
d12(5,40)                                           1 	(obj:0)
d12(5,42)                                           1 	(obj:0)
d12(5,44)                                           1 	(obj:0)
d12(5,46)                                           1 	(obj:0)
d12(5,48)                                           1 	(obj:0)
d12(5,50)                                           1 	(obj:0)
d12(5,52)                                           1 	(obj:0)
d12(5,54)                                           1 	(obj:0)
d12(5,56)                                           1 	(obj:0)
d12(5,58)                                           1 	(obj:0)
d12(5,60)                                           1 	(obj:0)
d12(5,62)                                           1 	(obj:0)
d12(6,64)                                           1 	(obj:0)
d12(6,66)                                           1 	(obj:0)
d12(6,68)                                           1 	(obj:0)
d12(6,70)                                           1 	(obj:0)
d12(6,72)                                           1 	(obj:0)
d12(6,74)                                           1 	(obj:0)
d12(6,76)                                           1 	(obj:0)
d12(6,78)                                           1 	(obj:0)
d12(6,80)                                           1 	(obj:0)
d12(6,82)                                           1 	(obj:0)
d12(6,84)                                           1 	(obj:0)
d12(6,86)                                           1 	(obj:0)
d12(6,88)                                           1 	(obj:0)
d12(6,90)                                           1 	(obj:0)
d12(6,92)                                           1 	(obj:0)
d12(6,94)                                           1 	(obj:0)
d12(6,96)                                           1 	(obj:0)
d12(6,98)                                           1 	(obj:0)
d12(6,100)                                          1 	(obj:0)
d12(6,102)                                          1 	(obj:0)
d12(6,104)                                          1 	(obj:0)
d12(6,106)                                          1 	(obj:0)
d12(6,108)                                          1 	(obj:0)
d12(6,110)                                          1 	(obj:0)
d12(6,114)                                          1 	(obj:0)
d12(6,116)                                          1 	(obj:0)
d12(6,118)                                          1 	(obj:0)
d12(6,120)                                          1 	(obj:0)
d12(6,122)                                          1 	(obj:0)
d12(6,124)                                          1 	(obj:0)
d12(6,126)                                          1 	(obj:0)
d21(4,15)                                           1 	(obj:0)
d21(5,31)                                           1 	(obj:0)
d21(5,32)                                           1 	(obj:0)
d21(5,33)                                           1 	(obj:0)
d21(5,35)                                           1 	(obj:0)
d21(5,39)                                           1 	(obj:0)
d21(5,47)                                           1 	(obj:0)
d21(6,63)                                           1 	(obj:0)
d21(6,64)                                           1 	(obj:0)
d21(6,65)                                           1 	(obj:0)
d21(6,66)                                           1 	(obj:0)
d21(6,67)                                           1 	(obj:0)
d21(6,68)                                           1 	(obj:0)
d21(6,69)                                           1 	(obj:0)
d21(6,70)                                           1 	(obj:0)
d21(6,71)                                           1 	(obj:0)
d21(6,72)                                           1 	(obj:0)
d21(6,73)                                           1 	(obj:0)
d21(6,74)                                           1 	(obj:0)
d21(6,75)                                           1 	(obj:0)
d21(6,76)                                           1 	(obj:0)
d21(6,77)                                           1 	(obj:0)
d21(6,79)                                           1 	(obj:0)
d21(6,80)                                           1 	(obj:0)
d21(6,81)                                           1 	(obj:0)
d21(6,82)                                           1 	(obj:0)
d21(6,83)                                           1 	(obj:0)
d21(6,87)                                           1 	(obj:0)
d21(6,88)                                           1 	(obj:0)
d21(6,89)                                           1 	(obj:0)
d21(6,91)                                           1 	(obj:0)
d21(6,95)                                           1 	(obj:0)
d21(6,96)                                           1 	(obj:0)
d21(6,97)                                           1 	(obj:0)
d21(6,98)                                           1 	(obj:0)
d21(6,99)                                           1 	(obj:0)
d21(6,103)                                          1 	(obj:0)
d21(6,104)                                          1 	(obj:0)
d21(6,105)                                          1 	(obj:0)
d21(6,111)                                          1 	(obj:0)
d21(6,113)                                          1 	(obj:0)
d21(6,119)                                          1 	(obj:0)
STE(1,1)                             10085.3475737313 	(obj:0)
STE(0,0)                                        14175 	(obj:0)
STE(1,2)                             11743.5974726201 	(obj:0)
STE(2,3)                             7293.09767484247 	(obj:0)
STE(2,4)                             8951.34757373132 	(obj:0)
STE(2,5)                             8951.34757373129 	(obj:0)
STE(2,6)                             10609.5974726201 	(obj:0)
STE(3,7)                             6159.09767484247 	(obj:0)
STE(3,8)                             7475.31176071898 	(obj:0)
STE(3,9)                             7817.34757373132 	(obj:0)
STE(3,10)                            9133.56165960783 	(obj:0)
STE(3,11)                             7817.3475737313 	(obj:0)
STE(3,12)                             9133.5616596078 	(obj:0)
STE(3,13)                            9475.59747262011 	(obj:0)
STE(3,14)                            10791.8115584966 	(obj:0)
STE(4,15)                            3366.84777595363 	(obj:0)
STE(4,16)                            5025.09767484247 	(obj:0)
STE(4,17)                            4683.06186183014 	(obj:0)
STE(4,18)                            6341.31176071898 	(obj:0)
STE(4,19)                            5025.09767484248 	(obj:0)
STE(4,20)                             6683.3475737313 	(obj:0)
STE(4,21)                            6341.31176071898 	(obj:0)
STE(4,22)                            7999.56165960783 	(obj:0)
STE(4,23)                            5025.09767484245 	(obj:0)
STE(4,24)                             6683.3475737313 	(obj:0)
STE(4,25)                            6341.31176071896 	(obj:0)
STE(4,26)                             7999.5616596078 	(obj:0)
STE(4,27)                            6683.34757373127 	(obj:0)
STE(4,28)                            8341.59747262008 	(obj:0)
STE(4,29)                            7999.56165960777 	(obj:0)
STE(4,30)                            9657.81155849662 	(obj:0)
STE(5,31)                            2232.84777595363 	(obj:0)
STE(5,32)                            3549.06186183013 	(obj:0)
STE(5,33)                            3891.09767484247 	(obj:0)
STE(5,34)                            5207.31176071898 	(obj:0)
STE(5,35)                            3549.06186183014 	(obj:0)
STE(5,36)                            4865.27594770664 	(obj:0)
STE(5,37)                            5207.31176071902 	(obj:0)
STE(5,38)                            6523.52584659549 	(obj:0)
STE(5,39)                            3891.09767484248 	(obj:0)
STE(5,40)                            5207.31176071898 	(obj:0)
STE(5,41)                             5549.3475737313 	(obj:0)
STE(5,42)                             6865.5616596078 	(obj:0)
STE(5,43)                            5207.31176071899 	(obj:0)
STE(5,44)                            6523.52584659549 	(obj:0)
STE(5,45)                            6865.56165960783 	(obj:0)
STE(5,46)                            8181.77574548434 	(obj:0)
STE(5,47)                            3891.09767484245 	(obj:0)
STE(5,48)                            5207.31176071896 	(obj:0)
STE(5,49)                            5549.34757373134 	(obj:0)
STE(5,50)                             6865.5616596078 	(obj:0)
STE(5,51)                            5207.31176071896 	(obj:0)
STE(5,52)                            6523.52584659546 	(obj:0)
STE(5,53)                             6865.5616596078 	(obj:0)
STE(5,54)                            8181.77574548431 	(obj:0)
STE(5,55)                            5549.34757373131 	(obj:0)
STE(5,56)                            6865.56165960777 	(obj:0)
STE(5,57)                            7207.59747262013 	(obj:0)
STE(5,58)                            8523.81155849659 	(obj:0)
STE(5,59)                            6865.56165960782 	(obj:0)
STE(5,60)                            8181.77574548428 	(obj:0)
STE(5,61)                            8523.81155849662 	(obj:0)
STE(5,62)                            9840.02564437313 	(obj:0)
STE(6,63)                           -380.214033654171 	(obj:0)
STE(6,64)                            1098.84777595363 	(obj:0)
STE(6,65)                            936.000052222335 	(obj:0)
STE(6,66)                            2415.06186183013 	(obj:0)
STE(6,67)                            1278.03586523467 	(obj:0)
STE(6,68)                            2757.09767484247 	(obj:0)
STE(6,69)                            2594.24995111118 	(obj:0)
STE(6,70)                            4073.31176071896 	(obj:0)
STE(6,71)                            936.000052222337 	(obj:0)
STE(6,72)                            2415.06186183014 	(obj:0)
STE(6,73)                            2252.21413809884 	(obj:0)
STE(6,74)                            3731.27594770664 	(obj:0)
STE(6,75)                            2594.24995111122 	(obj:0)
STE(6,76)                            4073.31176071902 	(obj:0)
STE(6,77)                            3910.46403698769 	(obj:0)
STE(6,78)                            5389.52584659549 	(obj:0)
STE(6,79)                            1278.03586523468 	(obj:0)
STE(6,80)                            2757.09767484248 	(obj:0)
STE(6,81)                            2594.24995111118 	(obj:0)
STE(6,82)                            4073.31176071898 	(obj:0)
STE(6,83)                             2936.2857641235 	(obj:0)
STE(6,84)                             4415.3475737313 	(obj:0)
STE(6,85)                                  4252.49985 	(obj:0)
STE(6,86)                             5731.5616596078 	(obj:0)
STE(6,87)                            2594.24995111118 	(obj:0)
STE(6,88)                            4073.31176071899 	(obj:0)
STE(6,89)                            3910.46403698769 	(obj:0)
STE(6,90)                            5389.52584659549 	(obj:0)
STE(6,91)                            4252.49985000003 	(obj:0)
STE(6,92)                            5731.56165960783 	(obj:0)
STE(6,93)                            5568.71393587654 	(obj:0)
STE(6,94)                            7047.77574548434 	(obj:0)
STE(6,95)                            1278.03586523465 	(obj:0)
STE(6,96)                            2757.09767484245 	(obj:0)
STE(6,97)                            2594.24995111116 	(obj:0)
STE(6,98)                            4073.31176071896 	(obj:0)
STE(6,99)                            2936.28576412354 	(obj:0)
STE(6,100)                           4415.34757373134 	(obj:0)
STE(6,101)                                 4252.49985 	(obj:0)
STE(6,102)                            5731.5616596078 	(obj:0)
STE(6,103)                           2594.24995111116 	(obj:0)
STE(6,104)                           4073.31176071893 	(obj:0)
STE(6,105)                           3910.46403698766 	(obj:0)
STE(6,106)                           5389.52584659546 	(obj:0)
STE(6,107)                                 4252.49985 	(obj:0)
STE(6,108)                            5731.5616596078 	(obj:0)
STE(6,109)                           5568.71393587651 	(obj:0)
STE(6,110)                           7047.77574548431 	(obj:0)
STE(6,111)                           2936.28576412351 	(obj:0)
STE(6,112)                           4415.34757373131 	(obj:0)
STE(6,113)                           4252.49984999997 	(obj:0)
STE(6,114)                           5731.56165960777 	(obj:0)
STE(6,115)                           4594.53566301233 	(obj:0)
STE(6,116)                           6073.59747262013 	(obj:0)
STE(6,117)                           5910.74974888879 	(obj:0)
STE(6,118)                           7389.81155849659 	(obj:0)
STE(6,119)                           4252.49985000001 	(obj:0)
STE(6,120)                           5731.56165960782 	(obj:0)
STE(6,121)                           5568.71393587648 	(obj:0)
STE(6,122)                           7047.77574548428 	(obj:0)
STE(6,123)                           5910.74974888882 	(obj:0)
STE(6,124)                           7389.81155849662 	(obj:0)
STE(6,125)                           7226.96383476533 	(obj:0)
STE(6,126)                           8706.02564437313 	(obj:0)
y1(6,99)                             1331.15562864702 	(obj:0)
y1(6,101)                            1331.15562864702 	(obj:0)
y1(6,103)                            1331.15562864702 	(obj:0)
y1(6,105)                            1331.15562864702 	(obj:0)
y1(6,107)                            1331.15562864702 	(obj:0)
y1(6,109)                            1331.15562864702 	(obj:0)
y1(6,111)                            1331.15562864702 	(obj:0)
y1(6,113)                            1331.15562864702 	(obj:0)
y1(6,115)                            1331.15562864702 	(obj:0)
y1(6,117)                            1331.15562864702 	(obj:0)
y1(6,119)                            1331.15562864702 	(obj:0)
y1(6,121)                            1331.15562864702 	(obj:0)
y1(6,123)                            1331.15562864702 	(obj:0)
y1(6,125)                            1331.15562864702 	(obj:0)
BG(6)                                4031.73200882353 	(obj:10)
WB(1)                                3259.55177567504 	(obj:0)
AVE(1)                               3259.55177567504 	(obj:0)
AVE(2)                               3259.55588804169 	(obj:0)
WB(3)                                3579.36165209166 	(obj:0)
AVE(3)                               3579.36165209166 	(obj:0)
AVE(4)                               3579.36576445831 	(obj:0)
WB(5)                                 799.36013916623 	(obj:0)
AVE(5)                               3472.77007794174 	(obj:0)
WB(6)                                 3046.3618950668 	(obj:0)
AVE(6)                                3046.3618950668 	(obj:0)
WG(2)                                3259.55588804169 	(obj:10)
WG(4)                                3579.36576445831 	(obj:10)
WG(5)                                2673.40993877551 	(obj:10)
BG(1)                                5387.78461596107 	(obj:10)
BG(2)                                936.736610937901 	(obj:10)
BG(3)                                2673.40993877551 	(obj:10)
BG(4)                                616.926734521281 	(obj:10)
y1(1,1)                              2660.08718364181 	(obj:0)
y1(1,2)                              1167.66227464188 	(obj:0)
y1(2,3)                              1492.42490899996 	(obj:0)
y1(2,5)                              1492.42490899996 	(obj:0)
y1(4,15)                             1492.42490899996 	(obj:0)
y1(4,17)                             1492.42490899996 	(obj:0)
y1(4,19)                             1492.42490899996 	(obj:0)
y1(4,21)                             1492.42490899996 	(obj:0)
y1(4,23)                             1492.42490899996 	(obj:0)
y1(4,25)                             1492.42490899996 	(obj:0)
y1(4,27)                             1492.42490899996 	(obj:0)
y1(4,29)                             1492.42490899996 	(obj:0)
y1(6,63)                             1331.15562864702 	(obj:0)
y1(6,65)                             1331.15562864702 	(obj:0)
y1(6,67)                             1331.15562864702 	(obj:0)
y1(6,69)                             1331.15562864702 	(obj:0)
y1(6,71)                             1331.15562864702 	(obj:0)
y1(6,73)                             1331.15562864702 	(obj:0)
y1(6,75)                             1331.15562864702 	(obj:0)
y1(6,77)                             1331.15562864702 	(obj:0)
y1(6,79)                             1331.15562864702 	(obj:0)
y1(6,81)                             1331.15562864702 	(obj:0)
y1(6,83)                             1331.15562864702 	(obj:0)
y1(6,85)                             1331.15562864702 	(obj:0)
y1(6,87)                             1331.15562864702 	(obj:0)
y1(6,89)                             1331.15562864702 	(obj:0)
y1(6,91)                             1331.15562864702 	(obj:0)
y1(6,93)                             1331.15562864702 	(obj:0)
y1(6,95)                             1331.15562864702 	(obj:0)
y1(6,97)                             1331.15562864702 	(obj:0)
y2(3,8)                              1385.48851144895 	(obj:0)
y2(3,10)                             1385.48851144895 	(obj:0)
y2(3,12)                             1385.48851144895 	(obj:0)
y2(3,14)                             1385.48851144895 	(obj:0)
y2(5,32)                             1385.48851144895 	(obj:0)
y2(5,34)                             1385.48851144895 	(obj:0)
y2(5,36)                             1385.48851144895 	(obj:0)
y2(5,38)                             1385.48851144895 	(obj:0)
y2(5,40)                             1385.48851144895 	(obj:0)
y2(5,42)                             1385.48851144895 	(obj:0)
y2(5,44)                             1385.48851144895 	(obj:0)
y2(5,46)                             1385.48851144895 	(obj:0)
y2(5,48)                             1385.48851144895 	(obj:0)
y2(5,50)                             1385.48851144895 	(obj:0)
y2(5,52)                             1385.48851144895 	(obj:0)
y2(5,54)                             1385.48851144895 	(obj:0)
y2(5,56)                             1385.48851144895 	(obj:0)
y2(5,58)                             1385.48851144895 	(obj:0)
y2(5,60)                             1385.48851144895 	(obj:0)
y2(5,62)                             1385.48851144895 	(obj:0)
